CMD:
./solvers/bin/cadical --plain --no-reduce -t 1600 ./data/cnfs//qspiflash_dualflexpress_divthree-p069/qspiflash_dualflexpress_divthree-p069.90.cnf

c --- [ banner ] -------------------------------------------------------------
c 
c CaDiCaL SAT Solver
c Copyright (c) 2016-2024
c A. Biere, M. Fleury, N. Froleyks, K. Fazekas, F. Pollitt, T. Faller
c JKU Linz, University of Freiburg, TU Wien
c 
c Version 2.1.3 5296d3d2a9bf48c154ab2acb5e44625776d821bf
c g++ (Gentoo 12.3.1_p20230526 p2) 12.3.1 20230526 -Wall -Wextra -O3 -DNDEBUG
c Sat Aug 9 07:26:21 PDT 2025 Linux cedar2.int.cedar.computecanada.ca 5.14.0-362.24.2.el9_3.x86_64 x86_64
c 
c --- [ limit ] --------------------------------------------------------------
c 
c setting time limit to 1600 seconds real time (due to '-t 1600')
c 
c --- [ parsing input ] ------------------------------------------------------
c 
c reading DIMACS file from './data/cnfs//qspiflash_dualflexpress_divthree-p069/qspiflash_dualflexpress_divthree-p069.90.cnf'
c opening file to read './data/cnfs//qspiflash_dualflexpress_divthree-p069/qspiflash_dualflexpress_divthree-p069.90.cnf'
c found 'p cnf 268079 783029' header
c parsed 783029 clauses in 0.12 seconds process time
c 
c --- [ options ] ------------------------------------------------------------
c 
c   --compact=false                (different from default 'true')
c   --decompose=false              (different from default 'true')
c   --deduplicate=false            (different from default 'true')
c   --elim=false                   (different from default 'true')
c   --probe=false                  (different from default 'true')
c   --reduce=false                 (different from default 'true')
c   --subsume=false                (different from default 'true')
c   --ternary=false                (different from default 'true')
c   --transred=false               (different from default 'true')
c   --vivify=false                 (different from default 'true')
c 
c --- [ solving ] ------------------------------------------------------------
c 
c time measured in process time since initialization
c 
c  seconds   reductions  redundant  irredundant
c          MB    restarts       trail       variables
c           level   conflicts       glue          remaining
c 
c *  0.12 125  0 0   0    0    0  0% 0 760236 252088 94%
c {  0.19 130  0 0   0    0    0  0% 0 760236 252088 94%
c i  0.25 130 125 0   0   18   13 26% 3 760236 252065 94%
c i  0.26 130 115 0   0   20   14 24% 2 760236 252056 94%
c i  0.40 131 166 0  41  655  574 18% 2 760236 251869 94%
c i  0.41 131 152 0  45  732  645 18% 2 760236 251798 94%
c i  0.42 131 144 0  57  781  688 17% 3 760236 251251 94%
c i  0.46 131 133 0  69  974  869 17% 3 760236 251237 94%
c i  0.46 131 133 0  69  977  871 17% 2 760236 251223 94%
c i  0.46 131 132 0  69  993  884 17% 2 760236 251209 94%
c }  0.46 131 132 0  69 1003  893 17% 2 760236 251209 94%
c [  0.46 131  0 0  69 1003  893  0% 0 760236 251209 94%
c O  0.52 131 1790 0  69 1004  894 89% 1 760236 251209 94%
c i  0.80 132 1046 0  70 2550 2335 54% 5 760236 251205 94%
c i  0.80 132 1033 0  70 2569 2353 54% 5 760236 251201 94%
c i  0.84 132 854 0  70 2900 2653 46% 5 760236 251197 94%
c i  0.84 132 830 0  70 2955 2703 45% 5 760236 251193 94%
c ]  0.89 132 814 0  70 3007 2754 44% 5 760236 251193 94%
c {  0.89 132 132 0  70 3007 2754 17% 2 760236 251193 94%
c F  0.89 132 131 0  70 3008 2755 17% 2 760236 251193 94%
c 
c  seconds    reductions  redundant  irredundant
c          MB     restarts       trail       variables
c            level   conflicts       glue          remaining
c 
c i  0.90 132 121 0  72 3111 2852 16% 2 760236 251181 94%
c i  0.90 132 121 0  72 3114 2854 16% 2 760236 251178 94%
c i  0.97 132 112 0  82 3439 3150 18% 3 760236 251174 94%
c i  1.03 132 102 0 135 3640 3334 17% 3 760236 251170 94%
c i  1.03 132 101 0 137 3652 3345 17% 3 760236 251166 94%
c i  1.04 132 98 0 154 3712 3401 17% 3 760236 251162 94%
c i  1.15 132 91 0 224 4046 3708 16% 3 760236 251154 94%
c i  1.15 132 91 0 224 4047 3708 16% 3 760236 251146 94%
c i  1.15 132 91 0 224 4048 3708 16% 3 760236 251138 94%
c i  1.15 132 91 0 225 4049 3708 16% 3 760236 251130 94%
c i  1.15 132 90 0 225 4064 3717 16% 3 760236 251118 94%
c i  1.15 132 90 0 225 4070 3722 16% 3 760236 251098 94%
c i  1.15 132 90 0 225 4072 3723 16% 3 760236 251078 94%
c i  1.15 132 90 0 225 4074 3724 16% 3 760236 251068 94%
c i  1.15 132 90 0 225 4076 3725 16% 3 760236 251031 94%
c i  1.18 132 87 0 236 4163 3803 16% 3 760236 251026 94%
c i  1.18 132 86 0 245 4199 3835 16% 3 760236 251022 94%
c i  1.29 132 75 0 321 4632 4211 15% 3 760236 250982 94%
c i  1.40 132 71 0 395 5091 4633 14% 3 760236 250979 94%
c i  1.44 132 66 0 451 5430 4932 14% 4 760236 250974 94%
c 
c  seconds   reductions  redundant  irredundant
c          MB    restarts       trail       variables
c           level   conflicts       glue          remaining
c 
c i  1.45 132 65 0 462 5477 4971 14% 4 760236 250970 94%
c i  1.48 132 63 0 492 5629 5100 14% 4 760236 250966 94%
c i  1.49 133 62 0 510 5702 5172 13% 4 760236 250962 94%
c i  1.50 133 61 0 532 5810 5270 13% 4 760236 250958 94%
... skipped 2 lines ...
c i  1.54 133 58 0 561 6009 5441 13% 4 760236 250950 94%
c i  1.55 133 57 0 564 6097 5509 13% 4 760236 250757 94%
c i  1.65 133 58 0 580 6741 6064 14% 4 760236 250743 94%
c i  1.66 133 58 0 582 6802 6121 14% 4 760236 250703 94%
c i  1.67 133 57 0 593 6847 6154 14% 4 760236 250659 94%
c i  1.68 133 57 0 605 6902 6195 14% 4 760236 250513 93%
c }  1.70 133 56 0 628 7007 6282 14% 4 760236 250513 93%
c [  1.70 133 814 0 628 7007 6282 44% 5 760236 250513 93%
c i  2.16 133 422 0 630 9455 8348 34% 7 760236 250509 93%
c I  2.39 133 382 0 630 10010 8837 33% 7 760236 250509 93%
c i  3.00 134 265 0 632 12679 11167 27% 7 760236 250495 93%
c ]  3.60 134 220 0 633 15007 13227 26% 7 760236 250495 93%
c {  3.60 134 56 0 633 15007 13227 14% 4 760236 250495 93%
c B  3.60 134 56 0 635 15012 13232 14% 4 760236 250495 93%
c 
c  seconds   reductions    redundant  irredundant
c          MB    restarts         trail       variables
c           level    conflicts        glue          remaining
c 
c i  3.60 134 56 0 636 15016 13235 14% 4 760236 250329 93%
c i  3.70 134 55 0 693 15265 13461 14% 4 760236 250323 93%
c i  3.76 134 53 0 750 15514 13657 13% 4 760236 250319 93%
c i  3.82 134 51 0 785 15725 13816 13% 4 760236 249468 93%
c i  3.93 135 50 0 828 16252 14278 14% 4 760236 249464 93%
c i  4.14 135 48 0 946 16999 14952 14% 4 760236 249453 93%
c i  4.24 135 47 0 983 17281 15195 14% 4 760236 249449 93%
c i  4.25 135 47 0 985 17334 15236 14% 4 760236 248971 93%
c i  4.26 135 47 0 985 17372 15267 14% 4 760236 244958 91%
c i  4.28 135 46 0 991 17452 15334 14% 4 760236 244686 91%
c i  4.29 135 46 0 993 17464 15343 14% 4 760236 244575 91%
c i  4.29 135 46 0 994 17473 15348 14% 4 760236 244571 91%
c i  4.29 135 46 0 996 17498 15370 14% 4 760236 244412 91%
c i  4.40 135 45 0 1018 17800 15637 14% 4 760236 244372 91%
c i  4.46 135 45 0 1025 17989 15810 14% 4 760236 238700 89%
c i  4.50 135 44 0 1043 18090 15897 14% 4 760236 238345 89%
c i  4.50 135 44 0 1043 18093 15899 14% 4 760236 238305 89%
c i  4.52 135 44 0 1047 18169 15956 14% 4 760236 238019 89%
c i  4.52 135 44 0 1047 18181 15965 14% 4 760236 236514 88%
c i  4.57 135 43 0 1055 18318 16074 14% 4 760236 232644 87%
c 
c  seconds   reductions     redundant  irredundant
c          MB    restarts          trail       variables
c           level     conflicts        glue          remaining
c 
c i  4.57 135 43 0 1056 18321 16076 14% 4 760236 231764 86%
c i  4.65 135 42 0 1060 18567 16267 14% 4 760236 217108 81%
c }  4.65 135 42 0 1060 18578 16271 14% 4 760236 216953 81%
c 0  4.65 135 42 0 1060 18578 16271 14% 4 760236 216953 81%
c 
c --- [ result ] -------------------------------------------------------------
c 
s UNSATISFIABLE
c 
c --- [ run-time profiling ] -------------------------------------------------
c 
c process time taken by individual solving procedures
c (percentage relative to process time for solving)
c 
c         4.53  100.00% search
c         2.33   51.34% stable
c         2.14   47.28% unstable
c         0.12    2.72% parse
c         0.06    1.37% lucky
c         0.00    0.00% simplify
c   =================================
c         4.53   97.34% solve
c 
c last line shows process time for solving
c (percentage relative to total process time)
c 
c --- [ statistics ] ---------------------------------------------------------
c 
c chronological:              7345        39.54 %  of conflicts
c conflicts:                 18578      4100.55    per second
c decisions:                 66030     14574.20    per second
c fixed:                     51092        19.06 %  of all variables
c learned:                   17738        95.48 %  per conflict
c learned_lits:             426543       100.00 %  learned literals
c minimized:                     0         0.00 %  learned literals
c shrunken:                  75497        17.70 %  learned literals
c minishrunken:              93127        21.83 %  learned literals
c otfs:                        160         0.86 %  of conflict
c propagations:           62513653        13.80 M  per second
c rephased:                      5      3715.60    interval
c restarts:                   1060        17.53    interval
c stabilizing:                   2        53.84 %  of conflicts
c subsumed:                   1400         0.18 %  of all clauses
c strengthened:                158         0.02 %  of all clauses
c 
c seconds are measured in process time for solving
c 
c --- [ resources ] ----------------------------------------------------------
c 
c total process time since initialization:         4.65    seconds
c total real time since initialization:            4.68    seconds
c maximum resident set size of process:          133.92    MB
c 
c --- [ shutting down ] ------------------------------------------------------
c 
c exit 20
